TCS_Benchmarks/redos_fix/snort3_output_distinct_2384_2383_0_0.smt2
(set-logic QF_S)
(declare-const x String)
(assert (str.in.re x (re.inter  (re.++ (re.* (re.comp  (re.union  (str.to_re "\u{0A}")  (str.to_re "\u{0D}"))) )  (re.union  (re.++  (re.union (re.range "\u{41}" "\u{5a}") (re.union (re.range "\u{61}" "\u{7a}") (re.range "\u{30}" "\u{39}"))) (re.++  (re.union (re.range "\u{41}" "\u{5a}") (re.union (re.range "\u{61}" "\u{7a}") (re.range "\u{30}" "\u{39}"))) (re.++  (re.union (re.range "\u{41}" "\u{5a}") (re.union (re.range "\u{61}" "\u{7a}") (re.range "\u{30}" "\u{39}"))) (re.++  (re.union (re.range "\u{41}" "\u{5a}") (re.union (re.range "\u{61}" "\u{7a}") (re.range "\u{30}" "\u{39}"))) (re.++  (re.union (re.range "\u{41}" "\u{5a}") (re.union (re.range "\u{61}" "\u{7a}") (re.range "\u{30}" "\u{39}")))  (re.union (re.range "\u{41}" "\u{5a}") (re.union (re.range "\u{61}" "\u{7a}") (re.range "\u{30}" "\u{39}")))))))) (re.union  (re.++  (re.union (re.range "\u{41}" "\u{5a}") (re.union (re.range "\u{61}" "\u{7a}") (re.range "\u{30}" "\u{39}")))   (re.++  (re.union (re.range "\u{41}" "\u{5a}") (re.union (re.range "\u{61}" "\u{7a}") (re.range "\u{30}" "\u{39}"))) (re.++  (re.union (re.range "\u{41}" "\u{5a}") (re.union (re.range "\u{61}" "\u{7a}") (re.range "\u{30}" "\u{39}"))) (re.++  (re.union (re.range "\u{41}" "\u{5a}") (re.union (re.range "\u{61}" "\u{7a}") (re.range "\u{30}" "\u{39}"))) (re.++  (re.union (re.range "\u{41}" "\u{5a}") (re.union (re.range "\u{61}" "\u{7a}") (re.range "\u{30}" "\u{39}"))) (re.++  (re.union (re.range "\u{41}" "\u{5a}") (re.union (re.range "\u{61}" "\u{7a}") (re.range "\u{30}" "\u{39}")))  (re.union (re.range "\u{41}" "\u{5a}") (re.union (re.range "\u{61}" "\u{7a}") (re.range "\u{30}" "\u{39}")))))))))  (re.++  (re.union (re.range "\u{41}" "\u{5a}") (re.union (re.range "\u{61}" "\u{7a}") (re.range "\u{30}" "\u{39}")))   (re.++  (re.union (re.range "\u{41}" "\u{5a}") (re.union (re.range "\u{61}" "\u{7a}") (re.range "\u{30}" "\u{39}")))   (re.++  (re.union (re.range "\u{41}" "\u{5a}") (re.union (re.range "\u{61}" "\u{7a}") (re.range "\u{30}" "\u{39}"))) (re.++  (re.union (re.range "\u{41}" "\u{5a}") (re.union (re.range "\u{61}" "\u{7a}") (re.range "\u{30}" "\u{39}"))) (re.++  (re.union (re.range "\u{41}" "\u{5a}") (re.union (re.range "\u{61}" "\u{7a}") (re.range "\u{30}" "\u{39}"))) (re.++  (re.union (re.range "\u{41}" "\u{5a}") (re.union (re.range "\u{61}" "\u{7a}") (re.range "\u{30}" "\u{39}"))) (re.++  (re.union (re.range "\u{41}" "\u{5a}") (re.union (re.range "\u{61}" "\u{7a}") (re.range "\u{30}" "\u{39}")))  (re.union (re.range "\u{41}" "\u{5a}") (re.union (re.range "\u{61}" "\u{7a}") (re.range "\u{30}" "\u{39}")))))))))))))  (re.++ (re.* (re.comp  (re.union  (str.to_re "\u{0A}")  (str.to_re "\u{0D}"))) ) (re.++  (str.to.re "\u{2f}")  (re.union  (re.++  (re.union (re.range "\u{41}" "\u{5a}") (re.union (re.range "\u{61}" "\u{7a}") (re.range "\u{30}" "\u{39}"))) (re.++  (re.union (re.range "\u{41}" "\u{5a}") (re.union (re.range "\u{61}" "\u{7a}") (re.range "\u{30}" "\u{39}"))) (re.++  (re.union (re.range "\u{41}" "\u{5a}") (re.union (re.range "\u{61}" "\u{7a}") (re.range "\u{30}" "\u{39}"))) (re.++  (re.union (re.range "\u{41}" "\u{5a}") (re.union (re.range "\u{61}" "\u{7a}") (re.range "\u{30}" "\u{39}"))) (re.++  (re.union (re.range "\u{41}" "\u{5a}") (re.union (re.range "\u{61}" "\u{7a}") (re.range "\u{30}" "\u{39}")))  (re.union (re.range "\u{41}" "\u{5a}") (re.union (re.range "\u{61}" "\u{7a}") (re.range "\u{30}" "\u{39}")))))))) (re.union  (re.++  (re.union (re.range "\u{41}" "\u{5a}") (re.union (re.range "\u{61}" "\u{7a}") (re.range "\u{30}" "\u{39}")))   (re.++  (re.union (re.range "\u{41}" "\u{5a}") (re.union (re.range "\u{61}" "\u{7a}") (re.range "\u{30}" "\u{39}"))) (re.++  (re.union (re.range "\u{41}" "\u{5a}") (re.union (re.range "\u{61}" "\u{7a}") (re.range "\u{30}" "\u{39}"))) (re.++  (re.union (re.range "\u{41}" "\u{5a}") (re.union (re.range "\u{61}" "\u{7a}") (re.range "\u{30}" "\u{39}"))) (re.++  (re.union (re.range "\u{41}" "\u{5a}") (re.union (re.range "\u{61}" "\u{7a}") (re.range "\u{30}" "\u{39}"))) (re.++  (re.union (re.range "\u{41}" "\u{5a}") (re.union (re.range "\u{61}" "\u{7a}") (re.range "\u{30}" "\u{39}")))  (re.union (re.range "\u{41}" "\u{5a}") (re.union (re.range "\u{61}" "\u{7a}") (re.range "\u{30}" "\u{39}")))))))))  (re.++  (re.union (re.range "\u{41}" "\u{5a}") (re.union (re.range "\u{61}" "\u{7a}") (re.range "\u{30}" "\u{39}")))   (re.++  (re.union (re.range "\u{41}" "\u{5a}") (re.union (re.range "\u{61}" "\u{7a}") (re.range "\u{30}" "\u{39}")))   (re.++  (re.union (re.range "\u{41}" "\u{5a}") (re.union (re.range "\u{61}" "\u{7a}") (re.range "\u{30}" "\u{39}"))) (re.++  (re.union (re.range "\u{41}" "\u{5a}") (re.union (re.range "\u{61}" "\u{7a}") (re.range "\u{30}" "\u{39}"))) (re.++  (re.union (re.range "\u{41}" "\u{5a}") (re.union (re.range "\u{61}" "\u{7a}") (re.range "\u{30}" "\u{39}"))) (re.++  (re.union (re.range "\u{41}" "\u{5a}") (re.union (re.range "\u{61}" "\u{7a}") (re.range "\u{30}" "\u{39}"))) (re.++  (re.union (re.range "\u{41}" "\u{5a}") (re.union (re.range "\u{61}" "\u{7a}") (re.range "\u{30}" "\u{39}")))  (re.union (re.range "\u{41}" "\u{5a}") (re.union (re.range "\u{61}" "\u{7a}") (re.range "\u{30}" "\u{39}")))))))))))))) )))
(check-sat)
(get-model)