TCS_Benchmarks/redos_fix/snort3_output_distinct_2384_2383_0_0.txt
([^\n\r]*)([A-Za-z\d]{6,8})
([^\n\r]*)(\/)([A-Za-z\d]{6,8})